&CONTROL
   calculation     = 'scf'
   max_seconds     = 79200
   outdir          = 'pwscf_output'
   prefix          = 'pwscf'
   pseudo_dir      = './'
   verbosity       = 'high'
   wf_collect      = .true.
/

&SYSTEM
   degauss         = 0.04
   ecutwfc         = 350
   Hubbard_U(1)    = 5.0
   ibrav           = 0
   input_dft       = 'lda'
   lda_plus_u      = .true.
   nat             = 40
   nosym           = .true.
   nspin           = 2
   ntyp            = 3
   occupations     = 'smearing'
   smearing        = 'fermi-dirac'
   starting_magnetization(1) = 1.0
   tot_charge      = 0
/

&ELECTRONS
   conv_thr        = 1e-07
   electron_maxstep = 1000
   mixing_beta     = 0.4
/


ATOMIC_SPECIES 
   Co 58.933 Co.opt.upf
   S  32.064 S.ccECP.upf
   Sn 118.69 Sn.BFD.upf

ATOMIC_POSITIONS bohr
   Sn       0.00000000       0.00000000       0.00000000 
   Co       2.54168174       4.40232193       0.00000000 
   Co       5.08336341       0.00000000       0.00000000 
   Co      -2.54168165       4.40232193       0.00000000 
   S        5.08336335       2.93488137       2.94951586 
   Sn      -0.00000000       5.86976276       4.15424915 
   S        0.00000000       0.00000000       5.35898033 
   Co       0.00000076       2.93488137       8.30849511 
   Co       2.54168165       7.33720358       8.30849511 
   Sn       5.08336335       2.93488137       8.30849511 
   Co      -2.54168176       7.33720358       8.30849511 
   S       -0.00000000       5.86976276      11.25801203 
   Sn       0.00000000       0.00000000      12.46274320 
   S        5.08336335       2.93488137      13.66747544 
   Co       2.54168144       1.46744136      16.61699130 
   Co       5.08336339       5.86976276      16.61699130 
   Co       7.62504555       1.46744083      16.61699130 
   Sn      -0.00000000       5.86976276      16.61699130 
   S        0.00000000       0.00000000      19.56650608 
   Sn       5.08336335       2.93488137      20.77124045 
   S       -0.00000000       5.86976276      21.97597055 
   Sn       0.00000000       0.00000000      24.92548641 
   Co       2.54168174       4.40232193      24.92548641 
   Co       5.08336341       0.00000000      24.92548641 
   Co      -2.54168165       4.40232193      24.92548641 
   S        5.08336335       2.93488137      27.87500333 
   Sn      -0.00000000       5.86976276      29.07973769 
   S        0.00000000       0.00000000      30.28446779 
   Co       0.00000076       2.93488137      33.23398259 
   Co       2.54168165       7.33720358      33.23398259 
   Sn       5.08336335       2.93488137      33.23398259 
   Co      -2.54168176       7.33720358      33.23398259 
   S       -0.00000000       5.86976276      36.18349738 
   Sn       0.00000000       0.00000000      37.38823175 
   S        5.08336335       2.93488137      38.59296184 
   Co       2.54168144       1.46744136      41.54247663 
   Co       5.08336339       5.86976276      41.54247663 
   Co       7.62504555       1.46744083      41.54247663 
   Sn      -0.00000000       5.86976276      41.54247663 
   S        0.50833633       6.16325058      44.45177792 

K_POINTS automatic
   5 5 1  0 0 0 

CELL_PARAMETERS bohr
        10.16672680       0.00000000       0.00000000 
        -5.08336341       8.80464369       0.00000000 
         0.00000000       0.00000000     106.54275778 


