&CONTROL
   restart_mode    = 'restart'
   disk_io         = 'low'
   max_seconds     = 160000
   outdir          = 'pwscf_output'
   prefix          = 'pwscf'
   pseudo_dir      = './'
   wf_collect      = .true.
/

&SYSTEM
   degauss         = 0.01
   ecutwfc         = 350
   Hubbard_U(1)    = 6
   Hubbard_U(2)    = 6
   Hubbard_U(4)    = 4
   ibrav           = 0
   input_dft       = 'lda'
   lda_plus_u      = .true.
   nat             = 80
   nosym           = .true.
   nspin           = 2
   ntyp            = 5
   occupations     = 'smearing'
   smearing        = 'm-p'
   starting_magnetization(1) = 0.5
   starting_magnetization(2) = -0.5
   starting_magnetization(4) = -0.5
   tot_charge      = 0
/

&ELECTRONS
   conv_thr        = 1e-05
   electron_maxstep = 999
   mixing_beta     = 0.1
/


ATOMIC_SPECIES 
   Co1 58.933 Co.opt.upf
   Co2 58.933 Co.opt.upf
   La 138.92 La.ropt1.upf
   Ni 58.69 Ni.opt.upf
   O  15.999 O.opt.upf

ATOMIC_POSITIONS bohr
   La      18.39551402       5.27736858       3.35969458 
   La      18.39551363      -0.42625615      12.31887814 
   La      12.26367595       6.61023495      16.79847020 
   La      21.46143278      15.16567029       3.35969458 
   La      21.46143275       9.46204674      12.31887814 
   La      15.32959470      16.49853666      16.79847020 
   La      12.26367597      12.31385849       7.83928663 
   La       9.19775685       2.42555560       7.83928663 
   La      18.39551296      15.83210112      10.07908212 
   La      15.32959450      11.64742419       1.11989801 
   La       9.19775608      18.68391292       5.59949007 
   La      15.32959457       5.94380060      10.07908212 
   La      12.26367575       1.75912248       1.11989801 
   La       6.13183770       8.79561239       5.59949007 
   La       6.13183776       3.09198880      14.55867417 
   La       9.19775652      12.98029051      14.55867417 
   Co1      18.39551335      10.55473492       6.71938754 
   Co1      18.39551351       4.85111128      15.67857218 
   Co1       9.19775657      13.40654667       2.23979603 
   Co1      15.32959460       0.66643321       6.71938754 
   Co1      21.46143227      14.73941299      15.67857218 
   Co1       6.13183781       3.51824496       2.23979603 
   Co1      12.26367539      17.59122479      11.19898013 
   Co1       9.19775664       7.70292308      11.19898013 
   Co2       0.00000000       0.00000000       0.00000000 
   Co2       6.13183758      14.07297983       8.95918411 
   Co2      12.26367570       1.33286632      13.43877616 
   Co2       3.06591876       9.88830171       0.00000000 
   Co2       3.06591882       4.18467812       8.95918411 
   Co2      15.32959445      11.22116803      13.43877616 
   Co2      12.26367563       7.03648991       4.47959205 
   Ni      15.32959438      16.92479163       4.47959205 
   O       19.30042369      10.41624077       3.05382491 
   O       19.30042367       4.71261723      12.01300848 
   O       13.16858561      11.74910714      16.49260053 
   O       16.23450493       0.52793906       3.05382491 
   O       22.36634242      14.60091894      12.01300848 
   O       10.10266686       1.86080543      16.49260053 
   O       13.16858564      17.45273069       7.53341697 
   O       10.10266688       7.56442898       7.53341697 
   O       17.49060329      10.69322893      10.38495178 
   O       14.42468447       6.50855081       1.42576768 
   O        8.29284641      13.54504072       5.90535973 
   O       14.42468453       0.80492722      10.38495178 
   O       17.49060322      16.39685252       1.42576768 
   O        5.22692766       3.65673901       5.90535973 
   O       11.35876524      17.72971884      14.86454383 
   O        8.29284648       7.84141713      14.86454383 
   O       20.55651182       7.56443918       7.53340095 
   O       20.55651215       1.86081612      16.49258557 
   O       11.35875411      10.41625150       3.05380941 
   O       23.62243075      17.45274146       7.53340095 
   O       23.62243091      11.74911783      16.49258557 
   O        8.29283535       0.52794979       3.05380941 
   O       14.42467293      14.60092962      12.01299352 
   O       11.35875417       4.71262791      12.01299352 
   O       16.23451591      13.54503004       5.90537469 
   O       16.23451597       7.84140645      14.86455880 
   O        7.03675903      16.39684183       1.42578264 
   O       13.16859715       3.65672833       5.90537469 
   O       19.30043473      17.72970816      14.86455880 
   O        3.97084028       6.50854012       1.42578264 
   O        3.97084034       0.80491653      10.38496674 
   O        7.03675910      10.69321824      10.38496674 
   O       15.32960514       8.40615499       6.21124328 
   O       15.32960502       2.70253080      15.17042738 
   O        6.13184790      11.25796628       1.73165017 
   O       18.39552371      18.29445610       6.21124328 
   O       18.39552378      12.59083251      15.17042738 
   O        3.06592915       1.36966457       1.73165017 
   O        9.19776690      15.44264431      10.69083533 
   O        6.13184815       5.55434260      10.69083533 
   O       21.46142120      12.70331300       7.22753288 
   O       21.46142127       6.99968941      16.18671698 
   O       12.26366451      15.55512470       2.74794188 
   O       18.39550245       2.81501129       7.22753288 
   O       24.52734002      16.88799112      16.18671698 
   O        9.19774575       5.66682299       2.74794188 
   O        9.19774564      -0.03680051      11.70712493 
   O       12.26366439       9.85150120      11.70712493 

K_POINTS crystal
   8
         0.50000000       0.50000000       0.50000000       1.00000000 
         0.00000000       0.50000000       0.50000000       1.00000000 
         0.50000000       0.00000000       0.50000000       1.00000000 
         0.00000000       0.00000000       0.50000000       1.00000000 
         0.50000000       0.50000000      -0.00000000       1.00000000 
         0.00000000       0.50000000       0.00000000       1.00000000 
         0.50000000       0.00000000       0.00000000       1.00000000 
         0.00000000       0.00000000       0.00000000       1.00000000 

CELL_PARAMETERS bohr
        18.39551368       0.00000000       0.00000000 
         6.13183751      19.77660342       0.00000000 
         3.06591889      -1.51894547      17.91836821 





