&CONTROL
   calculation     = 'scf'
   disk_io         = 'low'
   outdir          = 'pwscf_output'
   prefix          = 'pwscf'
   pseudo_dir      = '../'
   tprnfor         = .false.
   tstress         = .false.
   wf_collect      = .true.
   verbosity       = 'high'
/

&SYSTEM
   celldm(1)       = 1.0
   degauss         = 0.001
   ecutwfc         = 300
   ibrav           = 0
   input_dft       = 'hf'
   nat             = 4
   nbnd            = 64
   noinv           = .false.
   nosym           = .false.
   nosym_evc       = .false.
   nspin           = 2
   ntyp            = 3
   occupations     = 'smearing'
   smearing        = 'fermi-dirac'
   starting_magnetization(1) = -0.5
   starting_magnetization(2) =  0.5
   tot_charge      = 0
   tot_magnetization = 0
/

&ELECTRONS
   conv_thr         = 1e-10
   diagonalization  = 'david'
   electron_maxstep = 100
   mixing_beta      = 0.3
/

ATOMIC_SPECIES 
   Fe1  55.845  Fe.opt.upf
   Fe2  55.845  Fe.opt.upf
     O  15.999   O.opt.upf

K_POINTS automatic
   6 6 6  1 1 1 

ATOMIC_POSITIONS alat
   Fe1       0.00000000       0.00000000       0.00000000 
   Fe2       6.45683670       6.45683670       6.45683670 
   O         3.22841835       3.22841835       3.22841835 
   O         9.68525505       9.68525505       9.68525505 

CELL_PARAMETERS cubic
         7.37924194       2.76721573       2.76721573 
         2.76721573       7.37924194       2.76721573 
         2.76721573       2.76721573       7.37924194 


